100 100 100
50
7 93 98
5 66 74
7 95 73
39 96 90
34 80 88
18 92 79
89 75 7
20 87 84
68 39 83
4 94 86
43 94 86
15 91 86
4 78 87
33 94 95
43 12 26
42 84 96
37 84 67
9 66 92
50 84 85
8 79 66
99 69 85
41 78 82
16 99 83
79 96 20
90 43 82
67 25 91
32 86 85
9 89 81
32 93 96
89 87 50
85 10 88
1 38 1
42 45 32
40 80 88
50 73 83
100 71 8
34 72 83
32 8 27
3 93 70
39 74 92
38 88 68
69 9 72
16 77 91
37 49 42
7 48 2
87 20 72
84 11 97
5 84 96
22 86 85
50 72 81
